p cnf 13 22
-13 12 -7 0
13 -10 7 0
13 -10 -7 0
-13 -8 3 0
13 -6 1 0
-12 -11 -5 0
12 9 6 0
12 8 5 0
12 7 1 0
-11 9 -1 0
-11 7 6 0
11 6 3 0
-11 6 1 0
10 6 -2 0
-8 5 -3 0
-7 5 -4 0
7 -5 -1 0
7 4 3 0
-6 -3 2 0
-5 4 -3 0
-4 3 -1 0
-3 2 -1 0
